
Log started (V12.8.0.0) Wed Aug 29 20:14:21 2018

New value for time limit in seconds: 500
CPXPARAM_TimeLimit                               500
CPXPARAM_Emphasis_Numerical                      1
CPXPARAM_Parallel                                -1
CPXPARAM_Benders_Strategy                        3
CPXPARAM_MIP_Tolerances_Integrality              9.9999999999999995e-08
CPXPARAM_MIP_Pool_AbsGap                         0
Tried aggregator 4 times.
MIP Presolve eliminated 8936 rows and 4212 columns.
MIP Presolve added 236 rows and 0 columns.
MIP Presolve modified 52 coefficients.
Aggregator did 1862 substitutions.
Reduced MIP has 5612 rows, 4947 columns, and 20280 nonzeros.
Reduced MIP has 258 binaries, 0 generals, 0 SOSs, and 0 indicators.
Presolve time = 0.02 sec. (25.63 ticks)
Found incumbent of value 7.268118 after 0.04 sec. (45.25 ticks)
Tried aggregator 2 times.
MIP Presolve eliminated 240 rows and 0 columns.
MIP Presolve added 236 rows and 0 columns.
MIP Presolve modified 18 coefficients.
Aggregator did 2 substitutions.
Reduced MIP has 5606 rows, 4945 columns, and 20266 nonzeros.
Reduced MIP has 256 binaries, 0 generals, 0 SOSs, and 0 indicators.
Presolve time = 0.01 sec. (9.90 ticks)

        Nodes                                         Cuts/
   Node  Left     Objective  IInf  Best Integer    Best Bound    ItCnt     Gap

      0     0      110.0000                       Benders: 10        0         
      0     0      110.0000                        Benders: 3        1         
      0     0      110.0000                        Benders: 3        4         
      0     0      110.0000                        Benders: 2        7         
Tried aggregator 1 time.
MIP Presolve eliminated 232 rows and 0 columns.
MIP Presolve modified 303 coefficients.
Reduced MIP has 260 rows, 266 columns, and 945 nonzeros.
Reduced MIP has 256 binaries, 0 generals, 0 SOSs, and 0 indicators.
Presolve time = 0.00 sec. (1.16 ticks)
Probing time = 0.00 sec. (0.64 ticks)
Tried aggregator 1 time.
Reduced MIP has 260 rows, 266 columns, and 945 nonzeros.
Reduced MIP has 256 binaries, 0 generals, 0 SOSs, and 0 indicators.
Presolve time = 0.00 sec. (0.65 ticks)
Probing time = 0.00 sec. (0.64 ticks)
Clique table members: 750.
MIP emphasis: balance optimality and feasibility.
MIP search method: dynamic search.
Parallel mode: opportunistic, using up to 8 threads.
Root relaxation solution time = 0.00 sec. (0.32 ticks)
*     0+    0                           49.4790      110.0000           122.32%
      0     0      110.0000     4       49.4790      110.0000       25  122.32%
*     0+    0                           55.7039      110.0000            97.47%
      0     0      110.0000     4       55.7039      Fract: 2       29   97.47%
      0     0      110.0000     4       55.7039      Fract: 3       35   97.47%
*     0+    0                           61.1192      110.0000            79.98%

Repeating presolve.
Tried aggregator 1 time.
MIP Presolve modified 38 coefficients.
Reduced MIP has 260 rows, 266 columns, and 945 nonzeros.
Reduced MIP has 256 binaries, 0 generals, 0 SOSs, and 0 indicators.
Presolve time = 0.00 sec. (0.67 ticks)
Probing time = 0.00 sec. (0.59 ticks)
Tried aggregator 1 time.
Reduced MIP has 260 rows, 266 columns, and 945 nonzeros.
Reduced MIP has 256 binaries, 0 generals, 0 SOSs, and 0 indicators.
Presolve time = 0.00 sec. (0.66 ticks)
Represolve time = 0.01 sec. (3.25 ticks)
Probing time = 0.00 sec. (0.59 ticks)
Clique table members: 750.
MIP emphasis: balance optimality and feasibility.
MIP search method: dynamic search.
Parallel mode: opportunistic, using up to 8 threads.
Root relaxation solution time = 0.00 sec. (0.48 ticks)
*     0+    0                           61.1192      110.0000            79.98%
      0     0      110.0000     2       61.1192      110.0000       60   79.98%
      0     0      110.0000     6       61.1192      Fract: 3       63   79.98%
      0     0      110.0000    11       61.1192       Cuts: 2       68   79.98%
      0     2      110.0000     7       61.1192     Cuts: 132       68   79.98%
Elapsed time = 1.60 sec. (1393.65 ticks, tree = 0.01 MB, solutions = 1)
     56    25       97.9983     3       61.1192      110.0000      231   79.98%
    137    74      105.7431    12       91.0919      110.0000      929   20.76%
    309    91        cutoff            107.0513      110.0000     2496    2.75%
*   503+  153                          107.0779      110.0000             2.73%
*   533   172      integral     0      107.3250      110.0000     6082    2.49%
    537   148      108.5470     6      107.3250      110.0000     4476    2.49%
    944   152      109.1060    25      107.3250      109.1264     5234    1.68%
   1563   200        cutoff            107.3250      108.4342    10449    1.03%
   1963    18      107.7051     6      107.3250      107.9391    13644    0.57%

Benders cuts applied:  1657
Cover cuts applied:  1
Mixed integer rounding cuts applied:  5
Gomory fractional cuts applied:  8

Root node processing (before b&c):
  Real time             =    1.31 sec. (1351.96 ticks)
Parallel b&c, 8 threads:
  Real time             =    2.59 sec. (1902.12 ticks)
  Sync time (average)   =    0.15 sec.
  Wait time (average)   =    0.01 sec.
                          ------------
Total (root+branch&cut) =    3.90 sec. (3254.08 ticks)

Solution pool: 1 solution saved.

MIP - Integer optimal, tolerance (0.0001/1e-06):  Objective =  1.0732504145e+02
Current MIP best bound =  1.0733228451e+02 (gap = 0.00724306, 0.01%)
Solution time =    3.90 sec.  Iterations = 14082  Nodes = 2028 (1)
Deterministic time = 3254.93 ticks  (833.77 ticks/sec)


Solution pool written to file 'lsgcp_a8_b1_n2.sol'.
Current MIP best bound =  1.0733228451e+02 (gap = 0.00724306, 0.01%)
